nbA = 56;
attribute_domains =[{11, 12, 13, 14, 18, 19, 21, 24, 25, 27, 29, 30, 31, 32, 33, 39, 42, 46, 48},{10, 11, 12, 13, 14, 15, 16, 17, 18, 19, 20, 21, 22, 23, 24, 25, 26, 27, 28, 29, 30, 31, 32, 39, 40, 41, 42, 43, 45, 47, 49, 50, 52, 53, 54, 55, 57, 58},{10, 11, 12, 13, 14, 15, 16, 17, 18, 19, 21, 22, 24, 25, 26, 28, 29, 30, 31, 32, 39, 40, 41, 43, 45, 47, 50, 52, 54, 55, 57, 58},{11, 12, 13, 14, 15, 17, 18, 19, 21, 22, 23, 24, 25, 26, 28, 29, 30, 31, 32, 39, 40, 43, 44, 47, 49, 51, 52, 54, 55, 57},{11, 12, 13, 14, 15, 18, 19, 21, 22, 23, 24, 25, 27, 28, 29, 30, 31, 32, 33, 39, 42, 44, 47, 49, 51, 57},{10, 11, 13, 14, 15, 16, 17, 18, 19, 20, 21, 22, 23, 25, 26, 27, 28, 30, 31, 32, 41, 42, 43, 45, 47, 49, 50, 53, 57},{11, 12, 13, 14, 21, 24, 25, 27, 30, 31, 32, 42},{11, 12, 13, 14, 15, 18, 19, 21, 22, 23, 24, 25, 26, 27, 28, 29, 30, 31, 32, 39, 40, 42, 43, 44, 47, 49, 51, 52, 54, 55, 57},{11, 12, 13, 14, 21, 23, 24, 25, 30, 31, 32, 49},{11, 13, 14, 18, 19, 21, 23, 25, 26, 27, 30, 31, 32, 33, 42, 43, 44, 49, 51},{11, 12, 13, 14, 15, 18, 19, 21, 22, 23, 24, 25, 29, 30, 31, 32, 33, 39, 40, 44, 47, 49, 51, 52, 54, 55},{11, 12, 13, 14, 15, 17, 18, 19, 21, 22, 23, 24, 25, 26, 28, 29, 30, 31, 32, 39, 40, 43, 44, 47, 49, 51, 52, 54, 55, 57},{11, 12, 13, 14, 18, 19, 21, 24, 25, 27, 30, 31, 32, 42},{10, 11, 12, 13, 14, 15, 16, 17, 18, 19, 20, 21, 22, 23, 24, 25, 26, 28, 30, 31, 32, 40, 41, 43, 45, 47, 49, 50, 52, 53, 54, 55, 57, 58},{11, 12, 13, 14, 21, 24, 25, 30, 31, 32},{10, 11, 12, 13, 14, 15, 17, 18, 19, 21, 24, 25, 26, 28, 29, 30, 31, 32, 39, 40, 41, 43, 45, 47, 50, 52, 54, 55, 57, 59},{11, 12, 13, 14, 15, 18, 19, 21, 22, 23, 24, 25, 26, 27, 28, 29, 30, 31, 32, 39, 42, 43, 46, 47, 48, 49, 57},{11, 12, 13, 14, 21, 24, 25, 27, 30, 31, 32, 42},{10, 11, 12, 13, 14, 15, 17, 18, 19, 21, 22, 23, 24, 25, 26, 27, 28, 29, 30, 31, 32, 39, 40, 41, 42, 43, 44, 45, 47, 49, 50, 51, 52, 54, 55, 57},{11, 12, 13, 14, 18, 19, 21, 23, 24, 25, 27, 28, 29, 30, 31, 32, 33, 39, 42, 44, 49, 51, 57},{11, 12, 13, 14, 21, 24, 25, 27, 30, 31, 32, 42},{11, 12, 13, 14, 15, 18, 19, 21, 23, 24, 25, 28, 29, 30, 31, 32, 39, 44, 46, 47, 48, 49, 51, 57},{11, 12, 13, 14, 15, 18, 19, 21, 22, 23, 24, 25, 27, 28, 29, 30, 31, 32, 33, 39, 42, 46, 47, 48, 49, 57},{11, 13, 14, 15, 16, 18, 19, 20, 21, 23, 25, 26, 28, 30, 31, 32, 33, 43, 47, 49, 53, 57},{11, 12, 13, 14, 15, 18, 19, 21, 22, 23, 24, 25, 27, 28, 29, 30, 31, 32, 33, 39, 42, 46, 47, 48, 49, 57},{10, 11, 12, 13, 14, 15, 18, 19, 21, 22, 24, 25, 26, 27, 28, 29, 30, 31, 32, 39, 41, 42, 43, 44, 45, 47, 50, 51, 57, 59},{11, 12, 13, 14, 15, 18, 19, 21, 22, 23, 24, 25, 27, 28, 29, 30, 31, 32, 33, 39, 42, 46, 47, 48, 49, 57},{10, 11, 12, 13, 14, 15, 16, 17, 18, 19, 20, 21, 23, 24, 25, 26, 27, 28, 30, 31, 32, 40, 41, 42, 43, 44, 45, 47, 49, 50, 51, 52, 53, 54, 55, 57},{11, 12, 13, 14, 15, 18, 19, 21, 22, 23, 24, 25, 27, 28, 29, 30, 31, 32, 33, 39, 42, 46, 47, 48, 49, 57},{11, 12, 13, 14, 18, 19, 21, 23, 24, 25, 27, 30, 31, 32, 33, 42, 44, 49, 51},{11, 12, 13, 14, 21, 23, 24, 25, 27, 30, 31, 32, 42, 49},{11, 12, 13, 14, 15, 21, 23, 24, 25, 27, 30, 31, 32, 33, 42, 44, 47, 49, 51},{11, 12, 13, 14, 15, 18, 19, 21, 24, 25, 26, 29, 30, 31, 32, 39, 43, 47},{10, 11, 12, 13, 14, 15, 16, 18, 19, 21, 22, 24, 25, 26, 27, 28, 29, 30, 31, 32, 39, 41, 42, 43, 45, 47, 50, 57, 59},{11, 12, 13, 14, 15, 18, 19, 21, 22, 23, 24, 25, 26, 29, 30, 31, 32, 39, 40, 43, 44, 46, 47, 48, 49, 51, 52, 54, 55},{11, 12, 13, 14, 21, 24, 25, 30, 31, 32},{10, 11, 12, 13, 14, 15, 16, 18, 19, 21, 22, 23, 24, 25, 26, 27, 28, 29, 30, 31, 32, 39, 40, 41, 42, 43, 45, 47, 49, 50, 52, 54, 55, 57, 58, 59},{11, 12, 13, 14, 18, 19, 21, 23, 24, 25, 30, 31, 32, 33, 46, 48, 49},{11, 12, 13, 14, 21, 24, 25, 30, 31, 32},{10, 11, 12, 13, 14, 15, 16, 17, 18, 19, 21, 22, 23, 24, 25, 26, 28, 29, 30, 31, 32, 39, 40, 41, 43, 45, 47, 49, 50, 52, 54, 55, 57},{10, 11, 12, 13, 14, 15, 18, 19, 21, 22, 23, 24, 25, 26, 27, 28, 29, 30, 31, 32, 39, 40, 41, 42, 43, 44, 45, 47, 49, 50, 51, 52, 54, 55, 57},{11, 12, 13, 14, 15, 18, 19, 21, 22, 23, 24, 25, 27, 28, 29, 30, 31, 32, 33, 39, 42, 46, 47, 48, 49, 57},{10, 11, 12, 13, 14, 15, 16, 18, 19, 21, 22, 24, 25, 26, 29, 30, 31, 32, 39, 40, 41, 43, 45, 47, 50, 52, 54, 55},{11, 12, 13, 14, 18, 19, 21, 23, 24, 25, 27, 30, 31, 32, 33, 42, 44, 46, 48, 49, 51},{11, 13, 14, 18, 19, 20, 21, 22, 23, 25, 26, 27, 28, 30, 31, 32, 33, 40, 42, 43, 44, 49, 51, 52, 53, 54, 55, 57},{11, 12, 13, 14, 21, 24, 25, 27, 29, 30, 31, 32, 39, 42},{10, 11, 12, 13, 14, 18, 19, 20, 21, 22, 24, 25, 26, 28, 29, 30, 31, 32, 39, 40, 41, 43, 44, 45, 50, 51, 52, 53, 54, 55, 57, 59},{11, 12, 13, 14, 21, 23, 24, 25, 30, 31, 32, 49},{11, 12, 13, 14, 21, 24, 25, 27, 29, 30, 31, 32, 39, 42},{11, 13, 14, 15, 18, 19, 21, 23, 25, 26, 27, 30, 31, 32, 33, 42, 43, 44, 46, 47, 48, 49, 51},{11, 12, 13, 14, 18, 19, 21, 24, 25, 27, 30, 31, 32, 42},{11, 12, 13, 14, 21, 24, 25, 27, 30, 31, 32, 42},{11, 13, 14, 15, 18, 19, 20, 21, 22, 23, 25, 26, 27, 28, 29, 30, 31, 32, 39, 42, 43, 44, 47, 49, 51, 53, 57, 59},{10, 11, 12, 13, 14, 15, 16, 17, 18, 19, 21, 22, 24, 25, 26, 28, 29, 30, 31, 32, 39, 40, 41, 43, 45, 47, 50, 52, 54, 55, 57, 59},{11, 12, 13, 14, 21, 24, 25, 30, 31, 32},{11, 13, 14, 21, 23, 25, 27, 30, 31, 32, 33, 42, 44, 46, 48, 49, 51}];
match_costs = [|0, 0, 0, 0, 0, 0, 0, 0, 0, 0, 1372, 9681, 1372, 1372, 0, 0, 0, 9833, 9833, 0, 1372, 0, 0, 9681, 1372, 0, 9894, 0, 9834, 1372, 1372, 1372, 9744, 0, 0, 0, 0, 0, 9834, 0, 0, 9894, 0, 0, 0, 9832, 0, 9832, 0, 0, 0, 0, 0, 0, 0, 0, 0, 0, 0|
0, 0, 0, 0, 0, 0, 0, 0, 0, 8953, 6887, 9824, 6887, 6887, 9370, 9843, 9345, 9038, 9038, 9609, 6887, 9296, 9503, 9824, 6887, 9757, 9757, 9489, 9687, 6887, 6887, 6887, 0, 0, 0, 0, 0, 0, 9687, 9869, 8953, 9757, 9757, 0, 8953, 0, 9370, 0, 9503, 8953, 0, 9869, 9609, 9869, 9869, 0, 9489, 9843, 0|
0, 0, 0, 0, 0, 0, 0, 0, 0, 6142, 9085, 9589, 9085, 9085, 9598, 8818, 9710, 9116, 9116, 0, 9085, 9513, 0, 9589, 9085, 9628, 0, 9607, 9843, 9085, 9085, 9085, 0, 0, 0, 0, 0, 0, 9843, 9648, 6142, 0, 9628, 0, 6142, 0, 9598, 0, 0, 6142, 0, 9648, 0, 9648, 9648, 0, 9607, 9814, 0|
0, 0, 0, 0, 0, 0, 0, 0, 0, 0, 6488, 8078, 6488, 6488, 9746, 0, 9843, 9308, 9308, 0, 6488, 9765, 8903, 8078, 6488, 9731, 0, 9765, 9193, 6488, 6488, 6488, 0, 0, 0, 0, 0, 0, 9193, 9609, 0, 0, 9731, 9840, 0, 0, 9746, 0, 8903, 0, 9840, 9609, 0, 9609, 9609, 0, 9765, 0, 0|
0, 0, 0, 0, 0, 0, 0, 0, 0, 0, 4748, 9453, 4748, 4748, 9890, 0, 0, 8902, 8902, 0, 4748, 9604, 9027, 9453, 4748, 0, 9662, 9504, 9664, 4748, 4748, 4748, 9842, 0, 0, 0, 0, 0, 9664, 0, 0, 9662, 0, 9765, 0, 0, 9890, 0, 9027, 0, 9765, 0, 0, 0, 0, 0, 9504, 0, 0|
0, 0, 0, 0, 0, 0, 0, 0, 0, 8585, 8357, 0, 8357, 8357, 9843, 9231, 9828, 9468, 9468, 8659, 8357, 9687, 9190, 0, 8357, 8820, 9082, 9370, 0, 8357, 8357, 8357, 0, 0, 0, 0, 0, 0, 0, 0, 8585, 9082, 8820, 0, 8585, 0, 9843, 0, 9190, 8585, 0, 0, 8659, 0, 0, 0, 9370, 0, 0|
0, 0, 0, 0, 0, 0, 0, 0, 0, 0, 1542, 9384, 1542, 1542, 0, 0, 0, 0, 0, 0, 1542, 0, 0, 9384, 1542, 0, 9584, 0, 0, 1542, 1542, 1542, 0, 0, 0, 0, 0, 0, 0, 0, 0, 9584, 0, 0, 0, 0, 0, 0, 0, 0, 0, 0, 0, 0, 0, 0, 0, 0, 0|
0, 0, 0, 0, 0, 0, 0, 0, 0, 0, 6454, 9332, 6454, 6454, 9507, 0, 0, 9159, 9159, 0, 6454, 9375, 8977, 9332, 6454, 9541, 9609, 9843, 9218, 6454, 6454, 6454, 0, 0, 0, 0, 0, 0, 9218, 9609, 0, 9609, 9541, 9527, 0, 0, 9507, 0, 8977, 0, 9527, 9609, 0, 9609, 9609, 0, 9843, 0, 0|
0, 0, 0, 0, 0, 0, 0, 0, 0, 0, 843, 9699, 843, 843, 0, 0, 0, 0, 0, 0, 843, 0, 9810, 9699, 843, 0, 0, 0, 0, 843, 843, 843, 0, 0, 0, 0, 0, 0, 0, 0, 0, 0, 0, 0, 0, 0, 0, 0, 9810, 0, 0, 0, 0, 0, 0, 0, 0, 0, 0|
0, 0, 0, 0, 0, 0, 0, 0, 0, 0, 4017, 0, 4017, 4017, 0, 0, 0, 9382, 9382, 0, 4017, 0, 8464, 0, 4017, 9884, 9088, 0, 0, 4017, 4017, 4017, 9503, 0, 0, 0, 0, 0, 0, 0, 0, 9088, 9884, 9878, 0, 0, 0, 0, 8464, 0, 9878, 0, 0, 0, 0, 0, 0, 0, 0|
0, 0, 0, 0, 0, 0, 0, 0, 0, 0, 3585, 9225, 3585, 3585, 9818, 0, 0, 9753, 9753, 0, 3585, 9842, 9513, 9225, 3585, 0, 0, 0, 9451, 3585, 3585, 3585, 9592, 0, 0, 0, 0, 0, 9451, 9765, 0, 0, 0, 9683, 0, 0, 9818, 0, 9513, 0, 9683, 9765, 0, 9765, 9765, 0, 0, 0, 0|
0, 0, 0, 0, 0, 0, 0, 0, 0, 0, 6326, 8863, 6326, 6326, 9609, 0, 9765, 9199, 9199, 0, 6326, 9686, 8872, 8863, 6326, 9730, 0, 9765, 9167, 6326, 6326, 6326, 0, 0, 0, 0, 0, 0, 9167, 9375, 0, 0, 9730, 9840, 0, 0, 9609, 0, 8872, 0, 9840, 9375, 0, 9375, 9375, 0, 9765, 0, 0|
0, 0, 0, 0, 0, 0, 0, 0, 0, 0, 1497, 9547, 1497, 1497, 0, 0, 0, 9617, 9617, 0, 1497, 0, 0, 9547, 1497, 0, 9822, 0, 0, 1497, 1497, 1497, 0, 0, 0, 0, 0, 0, 0, 0, 0, 9822, 0, 0, 0, 0, 0, 0, 0, 0, 0, 0, 0, 0, 0, 0, 0, 0, 0|
0, 0, 0, 0, 0, 0, 0, 0, 0, 8251, 8693, 9664, 8693, 8693, 9584, 7935, 9600, 9688, 9688, 9765, 8693, 9676, 9836, 9664, 8693, 9162, 0, 9669, 0, 8693, 8693, 8693, 0, 0, 0, 0, 0, 0, 0, 9843, 8251, 0, 9162, 0, 8251, 0, 9584, 0, 9836, 8251, 0, 9843, 9765, 9843, 9843, 0, 9669, 8668, 0|
0, 0, 0, 0, 0, 0, 0, 0, 0, 0, 780, 9696, 780, 780, 0, 0, 0, 0, 0, 0, 780, 0, 0, 9696, 780, 0, 0, 0, 0, 780, 780, 780, 0, 0, 0, 0, 0, 0, 0, 0, 0, 0, 0, 0, 0, 0, 0, 0, 0, 0, 0, 0, 0, 0, 0, 0, 0, 0, 0|
0, 0, 0, 0, 0, 0, 0, 0, 0, 9481, 7950, 8578, 7950, 7950, 6888, 0, 9746, 9356, 9356, 0, 7950, 0, 0, 8578, 7950, 9423, 0, 9763, 9296, 7950, 7950, 7950, 0, 0, 0, 0, 0, 0, 9296, 9882, 9481, 0, 9423, 0, 9481, 0, 6888, 0, 0, 9481, 0, 9882, 0, 9882, 9882, 0, 9763, 0, 9841|
0, 0, 0, 0, 0, 0, 0, 0, 0, 0, 4463, 9207, 4463, 4463, 9892, 0, 0, 9219, 9219, 0, 4463, 9375, 9424, 9207, 4463, 9886, 9839, 9761, 9218, 4463, 4463, 4463, 0, 0, 0, 0, 0, 0, 9218, 0, 0, 9839, 9886, 0, 0, 9891, 9892, 9891, 9424, 0, 0, 0, 0, 0, 0, 0, 9761, 0, 0|
0, 0, 0, 0, 0, 0, 0, 0, 0, 0, 1542, 9384, 1542, 1542, 0, 0, 0, 0, 0, 0, 1542, 0, 0, 9384, 1542, 0, 9584, 0, 0, 1542, 1542, 1542, 0, 0, 0, 0, 0, 0, 0, 0, 0, 9584, 0, 0, 0, 0, 0, 0, 0, 0, 0, 0, 0, 0, 0, 0, 0, 0, 0|
0, 0, 0, 0, 0, 0, 0, 0, 0, 9843, 6723, 9328, 6723, 6723, 9687, 0, 9843, 8954, 8954, 0, 6723, 9531, 8981, 9328, 6723, 9527, 9531, 9843, 9296, 6723, 6723, 6723, 0, 0, 0, 0, 0, 0, 9296, 9453, 9843, 9531, 9527, 9609, 9843, 0, 9687, 0, 8981, 9843, 9609, 9453, 0, 9453, 9453, 0, 9843, 0, 0|
0, 0, 0, 0, 0, 0, 0, 0, 0, 0, 4313, 9712, 4313, 4313, 0, 0, 0, 9321, 9321, 0, 4313, 0, 8797, 9712, 4313, 0, 9682, 9440, 9845, 4313, 4313, 4313, 9669, 0, 0, 0, 0, 0, 9845, 0, 0, 9682, 0, 9594, 0, 0, 0, 0, 8797, 0, 9594, 0, 0, 0, 0, 0, 9440, 0, 0|
0, 0, 0, 0, 0, 0, 0, 0, 0, 0, 1542, 9384, 1542, 1542, 0, 0, 0, 0, 0, 0, 1542, 0, 0, 9384, 1542, 0, 9584, 0, 0, 1542, 1542, 1542, 0, 0, 0, 0, 0, 0, 0, 0, 0, 9584, 0, 0, 0, 0, 0, 0, 0, 0, 0, 0, 0, 0, 0, 0, 0, 0, 0|
0, 0, 0, 0, 0, 0, 0, 0, 0, 0, 5750, 7504, 5750, 5750, 9208, 0, 0, 9595, 9595, 0, 5750, 0, 9810, 7504, 5750, 0, 0, 9839, 8822, 5750, 5750, 5750, 0, 0, 0, 0, 0, 0, 8822, 0, 0, 0, 0, 9836, 0, 9888, 9208, 9888, 9810, 0, 9836, 0, 0, 0, 0, 0, 9839, 0, 0|
0, 0, 0, 0, 0, 0, 0, 0, 0, 0, 4185, 8724, 4185, 4185, 9833, 0, 0, 9506, 9506, 0, 4185, 9764, 9402, 8724, 4185, 0, 9742, 9761, 9552, 4185, 4185, 4185, 9813, 0, 0, 0, 0, 0, 9552, 0, 0, 9742, 0, 0, 0, 9891, 9833, 9891, 9402, 0, 0, 0, 0, 0, 0, 0, 9761, 0, 0|
0, 0, 0, 0, 0, 0, 0, 0, 0, 0, 7896, 0, 7896, 7896, 9765, 9843, 0, 9238, 9238, 6484, 7896, 0, 8063, 0, 7896, 9687, 0, 9685, 0, 7896, 7896, 7896, 9739, 0, 0, 0, 0, 0, 0, 0, 0, 0, 9687, 0, 0, 0, 9765, 0, 8063, 0, 0, 0, 6484, 0, 0, 0, 9685, 0, 0|
0, 0, 0, 0, 0, 0, 0, 0, 0, 0, 4185, 8724, 4185, 4185, 9833, 0, 0, 9506, 9506, 0, 4185, 9764, 9402, 8724, 4185, 0, 9742, 9761, 9552, 4185, 4185, 4185, 9813, 0, 0, 0, 0, 0, 9552, 0, 0, 9742, 0, 0, 0, 9891, 9833, 9891, 9402, 0, 0, 0, 0, 0, 0, 0, 9761, 0, 0|
0, 0, 0, 0, 0, 0, 0, 0, 0, 9752, 5750, 8185, 5750, 5750, 9534, 0, 0, 9336, 9336, 0, 5750, 9765, 0, 8185, 5750, 9338, 9841, 9724, 9164, 5750, 5750, 5750, 0, 0, 0, 0, 0, 0, 9164, 0, 9752, 9841, 9338, 9892, 9752, 0, 9534, 0, 0, 9752, 9892, 0, 0, 0, 0, 0, 9724, 0, 9884|
0, 0, 0, 0, 0, 0, 0, 0, 0, 0, 4185, 8724, 4185, 4185, 9833, 0, 0, 9506, 9506, 0, 4185, 9764, 9402, 8724, 4185, 0, 9742, 9761, 9552, 4185, 4185, 4185, 9813, 0, 0, 0, 0, 0, 9552, 0, 0, 9742, 0, 0, 0, 9891, 9833, 9891, 9402, 0, 0, 0, 0, 0, 0, 0, 9761, 0, 0|
0, 0, 0, 0, 0, 0, 0, 0, 0, 9021, 6657, 9433, 6657, 6657, 9429, 9843, 9673, 9360, 9360, 9531, 6657, 0, 9127, 9433, 6657, 9668, 9263, 9654, 0, 6657, 6657, 6657, 0, 0, 0, 0, 0, 0, 0, 9739, 9021, 9263, 9668, 9843, 9021, 0, 9429, 0, 9127, 9021, 9843, 9739, 9531, 9739, 9739, 0, 9654, 0, 0|
0, 0, 0, 0, 0, 0, 0, 0, 0, 0, 4185, 8724, 4185, 4185, 9833, 0, 0, 9506, 9506, 0, 4185, 9764, 9402, 8724, 4185, 0, 9742, 9761, 9552, 4185, 4185, 4185, 9813, 0, 0, 0, 0, 0, 9552, 0, 0, 9742, 0, 0, 0, 9891, 9833, 9891, 9402, 0, 0, 0, 0, 0, 0, 0, 9761, 0, 0|
0, 0, 0, 0, 0, 0, 0, 0, 0, 0, 3443, 9523, 3443, 3443, 0, 0, 0, 9826, 9826, 0, 3443, 0, 9055, 9523, 3443, 0, 9534, 0, 0, 3443, 3443, 3443, 9127, 0, 0, 0, 0, 0, 0, 0, 0, 9534, 0, 9864, 0, 0, 0, 0, 9055, 0, 9864, 0, 0, 0, 0, 0, 0, 0, 0|
0, 0, 0, 0, 0, 0, 0, 0, 0, 0, 1156, 9542, 1156, 1156, 0, 0, 0, 0, 0, 0, 1156, 0, 9810, 9542, 1156, 0, 9897, 0, 0, 1156, 1156, 1156, 0, 0, 0, 0, 0, 0, 0, 0, 0, 9897, 0, 0, 0, 0, 0, 0, 9810, 0, 0, 0, 0, 0, 0, 0, 0, 0, 0|
0, 0, 0, 0, 0, 0, 0, 0, 0, 0, 1760, 9531, 1760, 1760, 9892, 0, 0, 0, 0, 0, 1760, 0, 9733, 9531, 1760, 0, 9655, 0, 0, 1760, 1760, 1760, 9807, 0, 0, 0, 0, 0, 0, 0, 0, 9655, 0, 9875, 0, 0, 9892, 0, 9733, 0, 9875, 0, 0, 0, 0, 0, 0, 0, 0|
0, 0, 0, 0, 0, 0, 0, 0, 0, 0, 3892, 9370, 3892, 3892, 8960, 0, 0, 9509, 9509, 0, 3892, 0, 0, 9370, 3892, 9889, 0, 0, 8645, 3892, 3892, 3892, 0, 0, 0, 0, 0, 0, 8645, 0, 0, 0, 9889, 0, 0, 0, 8960, 0, 0, 0, 0, 0, 0, 0, 0, 0, 0, 0, 0|
0, 0, 0, 0, 0, 0, 0, 0, 0, 9494, 6547, 9370, 6547, 6547, 9291, 9843, 0, 9103, 9103, 0, 6547, 9687, 0, 9370, 6547, 9648, 9805, 8418, 9375, 6547, 6547, 6547, 0, 0, 0, 0, 0, 0, 9375, 0, 9494, 9805, 9648, 0, 9494, 0, 9291, 0, 0, 9494, 0, 0, 0, 0, 0, 0, 8418, 0, 9793|
0, 0, 0, 0, 0, 0, 0, 0, 0, 0, 6633, 8867, 6633, 6633, 9746, 0, 0, 9052, 9052, 0, 6633, 9687, 8980, 8867, 6633, 9343, 0, 0, 9357, 6633, 6633, 6633, 0, 0, 0, 0, 0, 0, 9357, 9140, 0, 0, 9343, 9762, 0, 9840, 9746, 9840, 8980, 0, 9762, 9140, 0, 9140, 9140, 0, 0, 0, 0|
0, 0, 0, 0, 0, 0, 0, 0, 0, 0, 780, 9696, 780, 780, 0, 0, 0, 0, 0, 0, 780, 0, 0, 9696, 780, 0, 0, 0, 0, 780, 780, 780, 0, 0, 0, 0, 0, 0, 0, 0, 0, 0, 0, 0, 0, 0, 0, 0, 0, 0, 0, 0, 0, 0, 0, 0, 0, 0, 0|
0, 0, 0, 0, 0, 0, 0, 0, 0, 8129, 7521, 9754, 7521, 7521, 9824, 9607, 0, 8850, 8850, 0, 7521, 8190, 9818, 9754, 7521, 9753, 9736, 9751, 9841, 7521, 7521, 7521, 0, 0, 0, 0, 0, 0, 9841, 9594, 8129, 9736, 9753, 0, 8129, 0, 9824, 0, 9818, 8129, 0, 9594, 0, 9594, 9594, 0, 9751, 9830, 9888|
0, 0, 0, 0, 0, 0, 0, 0, 0, 0, 1181, 9766, 1181, 1181, 0, 0, 0, 9828, 9828, 0, 1181, 0, 9886, 9766, 1181, 0, 0, 0, 0, 1181, 1181, 1181, 9727, 0, 0, 0, 0, 0, 0, 0, 0, 0, 0, 0, 0, 9898, 0, 9898, 9886, 0, 0, 0, 0, 0, 0, 0, 0, 0, 0|
0, 0, 0, 0, 0, 0, 0, 0, 0, 0, 780, 9696, 780, 780, 0, 0, 0, 0, 0, 0, 780, 0, 0, 9696, 780, 0, 0, 0, 0, 780, 780, 780, 0, 0, 0, 0, 0, 0, 0, 0, 0, 0, 0, 0, 0, 0, 0, 0, 0, 0, 0, 0, 0, 0, 0, 0, 0, 0, 0|
0, 0, 0, 0, 0, 0, 0, 0, 0, 9531, 6458, 9528, 6458, 6458, 9637, 9884, 9782, 8296, 8296, 0, 6458, 9448, 9525, 9528, 6458, 9671, 0, 9685, 9425, 6458, 6458, 6458, 0, 0, 0, 0, 0, 0, 9425, 9397, 9531, 0, 9671, 0, 9531, 0, 9637, 0, 9525, 9531, 0, 9397, 0, 9397, 9397, 0, 9685, 0, 0|
0, 0, 0, 0, 0, 0, 0, 0, 0, 9843, 6417, 8817, 6417, 6417, 9605, 0, 0, 9401, 9401, 0, 6417, 9453, 8899, 8817, 6417, 9449, 9683, 9843, 9453, 6417, 6417, 6417, 0, 0, 0, 0, 0, 0, 9453, 9609, 9843, 9683, 9449, 9683, 9843, 0, 9605, 0, 8899, 9843, 9683, 9609, 0, 9609, 9609, 0, 9843, 0, 0|
0, 0, 0, 0, 0, 0, 0, 0, 0, 0, 4185, 8724, 4185, 4185, 9833, 0, 0, 9506, 9506, 0, 4185, 9764, 9402, 8724, 4185, 0, 9742, 9761, 9552, 4185, 4185, 4185, 9813, 0, 0, 0, 0, 0, 9552, 0, 0, 9742, 0, 0, 0, 9891, 9833, 9891, 9402, 0, 0, 0, 0, 0, 0, 0, 9761, 0, 0|
0, 0, 0, 0, 0, 0, 0, 0, 0, 9218, 8100, 8965, 8100, 8100, 9194, 9843, 0, 6980, 6980, 0, 8100, 9609, 0, 8965, 8100, 9679, 0, 0, 9609, 8100, 8100, 8100, 0, 0, 0, 0, 0, 0, 9609, 9062, 9218, 0, 9679, 0, 9218, 0, 9194, 0, 0, 9218, 0, 9062, 0, 9062, 9062, 0, 0, 0, 0|
0, 0, 0, 0, 0, 0, 0, 0, 0, 0, 3554, 9346, 3554, 3554, 0, 0, 0, 9810, 9810, 0, 3554, 0, 9107, 9346, 3554, 0, 9547, 0, 0, 3554, 3554, 3554, 9270, 0, 0, 0, 0, 0, 0, 0, 0, 9547, 0, 9864, 0, 9843, 0, 9843, 9107, 0, 9864, 0, 0, 0, 0, 0, 0, 0, 0|
0, 0, 0, 0, 0, 0, 0, 0, 0, 0, 6323, 0, 6323, 6323, 0, 0, 0, 9521, 9521, 9763, 6323, 9842, 6533, 0, 6323, 9839, 9643, 9834, 0, 6323, 6323, 6323, 9540, 0, 0, 0, 0, 0, 0, 9843, 0, 9643, 9839, 9527, 0, 0, 0, 0, 6533, 0, 9527, 9843, 9763, 9843, 9843, 0, 9834, 0, 0|
0, 0, 0, 0, 0, 0, 0, 0, 0, 0, 1986, 9310, 1986, 1986, 0, 0, 0, 0, 0, 0, 1986, 0, 0, 9310, 1986, 0, 9814, 0, 9211, 1986, 1986, 1986, 0, 0, 0, 0, 0, 0, 9211, 0, 0, 9814, 0, 0, 0, 0, 0, 0, 0, 0, 0, 0, 0, 0, 0, 0, 0, 0, 0|
0, 0, 0, 0, 0, 0, 0, 0, 0, 9353, 7364, 8912, 7364, 7364, 0, 0, 0, 8326, 8326, 9837, 7364, 9280, 0, 8912, 7364, 8755, 0, 9524, 9761, 7364, 7364, 7364, 0, 0, 0, 0, 0, 0, 9761, 9606, 9353, 0, 8755, 9843, 9353, 0, 0, 0, 0, 9353, 9843, 9606, 9837, 9606, 9606, 0, 9524, 0, 9817|
0, 0, 0, 0, 0, 0, 0, 0, 0, 0, 843, 9699, 843, 843, 0, 0, 0, 0, 0, 0, 843, 0, 9810, 9699, 843, 0, 0, 0, 0, 843, 843, 843, 0, 0, 0, 0, 0, 0, 0, 0, 0, 0, 0, 0, 0, 0, 0, 0, 9810, 0, 0, 0, 0, 0, 0, 0, 0, 0, 0|
0, 0, 0, 0, 0, 0, 0, 0, 0, 0, 2064, 9310, 2064, 2064, 0, 0, 0, 0, 0, 0, 2064, 0, 0, 9310, 2064, 0, 9814, 0, 9211, 2064, 2064, 2064, 0, 0, 0, 0, 0, 0, 9211, 0, 0, 9814, 0, 0, 0, 0, 0, 0, 0, 0, 0, 0, 0, 0, 0, 0, 0, 0, 0|
0, 0, 0, 0, 0, 0, 0, 0, 0, 0, 3975, 0, 3975, 3975, 9898, 0, 0, 9375, 9375, 0, 3975, 0, 8719, 0, 3975, 9885, 9128, 0, 0, 3975, 3975, 3975, 9511, 0, 0, 0, 0, 0, 0, 0, 0, 9128, 9885, 9786, 0, 9830, 9898, 9830, 8719, 0, 9786, 0, 0, 0, 0, 0, 0, 0, 0|
0, 0, 0, 0, 0, 0, 0, 0, 0, 0, 1497, 9547, 1497, 1497, 0, 0, 0, 9617, 9617, 0, 1497, 0, 0, 9547, 1497, 0, 9822, 0, 0, 1497, 1497, 1497, 0, 0, 0, 0, 0, 0, 0, 0, 0, 9822, 0, 0, 0, 0, 0, 0, 0, 0, 0, 0, 0, 0, 0, 0, 0, 0, 0|
0, 0, 0, 0, 0, 0, 0, 0, 0, 0, 1699, 9306, 1699, 1699, 0, 0, 0, 0, 0, 0, 1699, 0, 0, 9306, 1699, 0, 9506, 0, 0, 1699, 1699, 1699, 0, 0, 0, 0, 0, 0, 0, 0, 0, 9506, 0, 0, 0, 0, 0, 0, 0, 0, 0, 0, 0, 0, 0, 0, 0, 0, 0|
0, 0, 0, 0, 0, 0, 0, 0, 0, 0, 6920, 0, 6920, 6920, 9765, 0, 0, 9724, 9724, 8123, 6920, 9453, 8767, 0, 6920, 9841, 8848, 9214, 9841, 6920, 6920, 6920, 0, 0, 0, 0, 0, 0, 9841, 0, 0, 8848, 9841, 9829, 0, 0, 9765, 0, 8767, 0, 9829, 0, 8123, 0, 0, 0, 9214, 0, 9839|
0, 0, 0, 0, 0, 0, 0, 0, 0, 8797, 7484, 9713, 7484, 7484, 9553, 9757, 9671, 8551, 8551, 0, 7484, 8423, 0, 9713, 7484, 9464, 0, 9671, 9526, 7484, 7484, 7484, 0, 0, 0, 0, 0, 0, 9526, 9687, 8797, 0, 9464, 0, 8797, 0, 9553, 0, 0, 8797, 0, 9687, 0, 9687, 9687, 0, 9671, 0, 9884|
0, 0, 0, 0, 0, 0, 0, 0, 0, 0, 780, 9696, 780, 780, 0, 0, 0, 0, 0, 0, 780, 0, 0, 9696, 780, 0, 0, 0, 0, 780, 780, 780, 0, 0, 0, 0, 0, 0, 0, 0, 0, 0, 0, 0, 0, 0, 0, 0, 0, 0, 0, 0, 0, 0, 0, 0, 0, 0, 0|
0, 0, 0, 0, 0, 0, 0, 0, 0, 0, 1548, 0, 1548, 1548, 0, 0, 0, 0, 0, 0, 1548, 0, 9472, 0, 1548, 0, 9728, 0, 0, 1548, 1548, 1548, 9666, 0, 0, 0, 0, 0, 0, 0, 0, 9728, 0, 9836, 0, 9830, 0, 9830, 9472, 0, 9836, 0, 0, 0, 0, 0, 0, 0, 0|];
match_costs_sorted = [|1, 2, 3, 4, 5, 6, 7, 8, 9, 10, 15, 16, 17, 20, 22, 23, 26, 28, 34, 35, 36, 37, 38, 40, 41, 43, 44, 45, 47, 49, 50, 51, 52, 53, 54, 55, 56, 57, 58, 59, 11, 13, 14, 21, 25, 30, 31, 32, 12, 24, 33, 46, 48, 18, 19, 29, 39, 27, 42|
1, 2, 3, 4, 5, 6, 7, 8, 9, 33, 34, 35, 36, 37, 38, 44, 46, 48, 51, 56, 59, 11, 13, 14, 21, 25, 30, 31, 32, 10, 41, 45, 50, 18, 19, 22, 17, 15, 47, 28, 57, 23, 49, 20, 53, 29, 39, 26, 27, 42, 43, 12, 24, 16, 58, 40, 52, 54, 55|
1, 2, 3, 4, 5, 6, 7, 8, 9, 20, 23, 27, 33, 34, 35, 36, 37, 38, 42, 44, 46, 48, 49, 51, 53, 56, 59, 10, 41, 45, 50, 16, 11, 13, 14, 21, 25, 30, 31, 32, 18, 19, 22, 12, 24, 15, 47, 28, 57, 26, 43, 40, 52, 54, 55, 17, 58, 29, 39|
1, 2, 3, 4, 5, 6, 7, 8, 9, 10, 16, 20, 27, 33, 34, 35, 36, 37, 38, 41, 42, 45, 46, 48, 50, 53, 56, 58, 59, 11, 13, 14, 21, 25, 30, 31, 32, 12, 24, 23, 49, 29, 39, 18, 19, 40, 52, 54, 55, 26, 43, 15, 47, 22, 28, 57, 44, 51, 17|
1, 2, 3, 4, 5, 6, 7, 8, 9, 10, 16, 17, 20, 26, 34, 35, 36, 37, 38, 40, 41, 43, 45, 46, 48, 50, 52, 53, 54, 55, 56, 58, 59, 11, 13, 14, 21, 25, 30, 31, 32, 18, 19, 23, 49, 12, 24, 28, 57, 22, 27, 42, 29, 39, 44, 51, 33, 15, 47|
1, 2, 3, 4, 5, 6, 7, 8, 9, 12, 24, 29, 33, 34, 35, 36, 37, 38, 39, 40, 44, 46, 48, 51, 52, 54, 55, 56, 58, 59, 11, 13, 14, 21, 25, 30, 31, 32, 10, 41, 45, 50, 20, 53, 26, 43, 27, 42, 23, 49, 16, 28, 57, 18, 19, 22, 17, 15, 47|
1, 2, 3, 4, 5, 6, 7, 8, 9, 10, 15, 16, 17, 18, 19, 20, 22, 23, 26, 28, 29, 33, 34, 35, 36, 37, 38, 39, 40, 41, 43, 44, 45, 46, 47, 48, 49, 50, 51, 52, 53, 54, 55, 56, 57, 58, 59, 11, 13, 14, 21, 25, 30, 31, 32, 12, 24, 27, 42|
1, 2, 3, 4, 5, 6, 7, 8, 9, 10, 16, 17, 20, 33, 34, 35, 36, 37, 38, 41, 45, 46, 48, 50, 53, 56, 58, 59, 11, 13, 14, 21, 25, 30, 31, 32, 23, 49, 18, 19, 29, 39, 12, 24, 22, 15, 47, 44, 51, 26, 43, 27, 40, 42, 52, 54, 55, 28, 57|
1, 2, 3, 4, 5, 6, 7, 8, 9, 10, 15, 16, 17, 18, 19, 20, 22, 26, 27, 28, 29, 33, 34, 35, 36, 37, 38, 39, 40, 41, 42, 43, 44, 45, 46, 47, 48, 50, 51, 52, 53, 54, 55, 56, 57, 58, 59, 11, 13, 14, 21, 25, 30, 31, 32, 12, 24, 23, 49|
1, 2, 3, 4, 5, 6, 7, 8, 9, 10, 12, 15, 16, 17, 20, 22, 24, 28, 29, 34, 35, 36, 37, 38, 39, 40, 41, 45, 46, 47, 48, 50, 52, 53, 54, 55, 56, 57, 58, 59, 11, 13, 14, 21, 25, 30, 31, 32, 23, 49, 27, 42, 18, 19, 33, 44, 51, 26, 43|
1, 2, 3, 4, 5, 6, 7, 8, 9, 10, 16, 17, 20, 26, 27, 28, 34, 35, 36, 37, 38, 41, 42, 43, 45, 46, 48, 50, 53, 56, 57, 58, 59, 11, 13, 14, 21, 25, 30, 31, 32, 12, 24, 29, 39, 23, 49, 33, 44, 51, 18, 19, 40, 52, 54, 55, 15, 47, 22|
1, 2, 3, 4, 5, 6, 7, 8, 9, 10, 16, 20, 27, 33, 34, 35, 36, 37, 38, 41, 42, 45, 46, 48, 50, 53, 56, 58, 59, 11, 13, 14, 21, 25, 30, 31, 32, 12, 24, 23, 49, 29, 39, 18, 19, 40, 52, 54, 55, 15, 47, 22, 26, 43, 17, 28, 57, 44, 51|
1, 2, 3, 4, 5, 6, 7, 8, 9, 10, 15, 16, 17, 20, 22, 23, 26, 28, 29, 33, 34, 35, 36, 37, 38, 39, 40, 41, 43, 44, 45, 46, 47, 48, 49, 50, 51, 52, 53, 54, 55, 56, 57, 58, 59, 11, 13, 14, 21, 25, 30, 31, 32, 12, 24, 18, 19, 27, 42|
1, 2, 3, 4, 5, 6, 7, 8, 9, 27, 29, 33, 34, 35, 36, 37, 38, 39, 42, 44, 46, 48, 51, 56, 59, 16, 10, 41, 45, 50, 58, 11, 13, 14, 21, 25, 30, 31, 32, 26, 43, 15, 47, 17, 12, 24, 28, 57, 22, 18, 19, 20, 53, 23, 49, 40, 52, 54, 55|
1, 2, 3, 4, 5, 6, 7, 8, 9, 10, 15, 16, 17, 18, 19, 20, 22, 23, 26, 27, 28, 29, 33, 34, 35, 36, 37, 38, 39, 40, 41, 42, 43, 44, 45, 46, 47, 48, 49, 50, 51, 52, 53, 54, 55, 56, 57, 58, 59, 11, 13, 14, 21, 25, 30, 31, 32, 12, 24|
1, 2, 3, 4, 5, 6, 7, 8, 9, 16, 20, 22, 23, 27, 33, 34, 35, 36, 37, 38, 42, 44, 46, 48, 49, 51, 53, 56, 58, 15, 47, 11, 13, 14, 21, 25, 30, 31, 32, 12, 24, 29, 39, 18, 19, 26, 43, 10, 41, 45, 50, 17, 28, 57, 59, 40, 52, 54, 55|
1, 2, 3, 4, 5, 6, 7, 8, 9, 10, 16, 17, 20, 33, 34, 35, 36, 37, 38, 40, 41, 44, 45, 50, 51, 52, 53, 54, 55, 56, 58, 59, 11, 13, 14, 21, 25, 30, 31, 32, 12, 24, 29, 39, 18, 19, 22, 23, 49, 28, 57, 27, 42, 26, 43, 46, 48, 15, 47|
1, 2, 3, 4, 5, 6, 7, 8, 9, 10, 15, 16, 17, 18, 19, 20, 22, 23, 26, 28, 29, 33, 34, 35, 36, 37, 38, 39, 40, 41, 43, 44, 45, 46, 47, 48, 49, 50, 51, 52, 53, 54, 55, 56, 57, 58, 59, 11, 13, 14, 21, 25, 30, 31, 32, 12, 24, 27, 42|
1, 2, 3, 4, 5, 6, 7, 8, 9, 16, 20, 33, 34, 35, 36, 37, 38, 46, 48, 53, 56, 58, 59, 11, 13, 14, 21, 25, 30, 31, 32, 18, 19, 23, 49, 29, 39, 12, 24, 40, 52, 54, 55, 26, 43, 22, 27, 42, 44, 51, 15, 47, 10, 17, 28, 41, 45, 50, 57|
1, 2, 3, 4, 5, 6, 7, 8, 9, 10, 15, 16, 17, 20, 22, 26, 34, 35, 36, 37, 38, 40, 41, 43, 45, 46, 47, 48, 50, 52, 53, 54, 55, 56, 58, 59, 11, 13, 14, 21, 25, 30, 31, 32, 23, 49, 18, 19, 28, 57, 44, 51, 33, 27, 42, 12, 24, 29, 39|
1, 2, 3, 4, 5, 6, 7, 8, 9, 10, 15, 16, 17, 18, 19, 20, 22, 23, 26, 28, 29, 33, 34, 35, 36, 37, 38, 39, 40, 41, 43, 44, 45, 46, 47, 48, 49, 50, 51, 52, 53, 54, 55, 56, 57, 58, 59, 11, 13, 14, 21, 25, 30, 31, 32, 12, 24, 27, 42|
1, 2, 3, 4, 5, 6, 7, 8, 9, 10, 16, 17, 20, 22, 26, 27, 33, 34, 35, 36, 37, 38, 40, 41, 42, 43, 45, 50, 52, 53, 54, 55, 56, 58, 59, 11, 13, 14, 21, 25, 30, 31, 32, 12, 24, 29, 39, 15, 47, 18, 19, 23, 49, 44, 51, 28, 57, 46, 48|
1, 2, 3, 4, 5, 6, 7, 8, 9, 10, 16, 17, 20, 26, 34, 35, 36, 37, 38, 40, 41, 43, 44, 45, 50, 51, 52, 53, 54, 55, 56, 58, 59, 11, 13, 14, 21, 25, 30, 31, 32, 12, 24, 23, 49, 18, 19, 29, 39, 27, 42, 28, 57, 22, 33, 15, 47, 46, 48|
1, 2, 3, 4, 5, 6, 7, 8, 9, 10, 12, 17, 22, 24, 27, 29, 34, 35, 36, 37, 38, 39, 40, 41, 42, 44, 45, 46, 48, 50, 51, 52, 54, 55, 56, 58, 59, 20, 53, 11, 13, 14, 21, 25, 30, 31, 32, 23, 49, 18, 19, 28, 57, 26, 43, 33, 15, 47, 16|
1, 2, 3, 4, 5, 6, 7, 8, 9, 10, 16, 17, 20, 26, 34, 35, 36, 37, 38, 40, 41, 43, 44, 45, 50, 51, 52, 53, 54, 55, 56, 58, 59, 11, 13, 14, 21, 25, 30, 31, 32, 12, 24, 23, 49, 18, 19, 29, 39, 27, 42, 28, 57, 22, 33, 15, 47, 46, 48|
1, 2, 3, 4, 5, 6, 7, 8, 9, 16, 17, 20, 23, 33, 34, 35, 36, 37, 38, 40, 46, 48, 49, 52, 53, 54, 55, 56, 58, 11, 13, 14, 21, 25, 30, 31, 32, 12, 24, 29, 39, 18, 19, 26, 43, 15, 47, 28, 57, 10, 41, 45, 50, 22, 27, 42, 59, 44, 51|
1, 2, 3, 4, 5, 6, 7, 8, 9, 10, 16, 17, 20, 26, 34, 35, 36, 37, 38, 40, 41, 43, 44, 45, 50, 51, 52, 53, 54, 55, 56, 58, 59, 11, 13, 14, 21, 25, 30, 31, 32, 12, 24, 23, 49, 18, 19, 29, 39, 27, 42, 28, 57, 22, 33, 15, 47, 46, 48|
1, 2, 3, 4, 5, 6, 7, 8, 9, 22, 29, 33, 34, 35, 36, 37, 38, 39, 46, 48, 56, 58, 59, 11, 13, 14, 21, 25, 30, 31, 32, 10, 41, 45, 50, 23, 49, 27, 42, 18, 19, 15, 47, 12, 24, 20, 53, 28, 57, 26, 43, 17, 40, 52, 54, 55, 16, 44, 51|
1, 2, 3, 4, 5, 6, 7, 8, 9, 10, 16, 17, 20, 26, 34, 35, 36, 37, 38, 40, 41, 43, 44, 45, 50, 51, 52, 53, 54, 55, 56, 58, 59, 11, 13, 14, 21, 25, 30, 31, 32, 12, 24, 23, 49, 18, 19, 29, 39, 27, 42, 28, 57, 22, 33, 15, 47, 46, 48|
1, 2, 3, 4, 5, 6, 7, 8, 9, 10, 15, 16, 17, 20, 22, 26, 28, 29, 34, 35, 36, 37, 38, 39, 40, 41, 43, 45, 46, 47, 48, 50, 52, 53, 54, 55, 56, 57, 58, 59, 11, 13, 14, 21, 25, 30, 31, 32, 23, 49, 33, 12, 24, 27, 42, 18, 19, 44, 51|
1, 2, 3, 4, 5, 6, 7, 8, 9, 10, 15, 16, 17, 18, 19, 20, 22, 26, 28, 29, 33, 34, 35, 36, 37, 38, 39, 40, 41, 43, 44, 45, 46, 47, 48, 50, 51, 52, 53, 54, 55, 56, 57, 58, 59, 11, 13, 14, 21, 25, 30, 31, 32, 12, 24, 23, 49, 27, 42|
1, 2, 3, 4, 5, 6, 7, 8, 9, 10, 16, 17, 18, 19, 20, 22, 26, 28, 29, 34, 35, 36, 37, 38, 39, 40, 41, 43, 45, 46, 48, 50, 52, 53, 54, 55, 56, 57, 58, 59, 11, 13, 14, 21, 25, 30, 31, 32, 12, 24, 27, 42, 23, 49, 33, 44, 51, 15, 47|
1, 2, 3, 4, 5, 6, 7, 8, 9, 10, 16, 17, 20, 22, 23, 27, 28, 33, 34, 35, 36, 37, 38, 40, 41, 42, 44, 45, 46, 48, 49, 50, 51, 52, 53, 54, 55, 56, 57, 58, 59, 11, 13, 14, 21, 25, 30, 31, 32, 29, 39, 15, 47, 12, 24, 18, 19, 26, 43|
1, 2, 3, 4, 5, 6, 7, 8, 9, 17, 20, 23, 33, 34, 35, 36, 37, 38, 40, 44, 46, 48, 49, 51, 52, 53, 54, 55, 56, 58, 11, 13, 14, 21, 25, 30, 31, 32, 28, 57, 18, 19, 15, 47, 12, 24, 29, 39, 10, 41, 45, 50, 26, 43, 22, 59, 27, 42, 16|
1, 2, 3, 4, 5, 6, 7, 8, 9, 10, 16, 17, 20, 27, 28, 33, 34, 35, 36, 37, 38, 41, 42, 45, 50, 53, 56, 57, 58, 59, 11, 13, 14, 21, 25, 30, 31, 32, 12, 24, 23, 49, 18, 19, 40, 52, 54, 55, 26, 43, 29, 39, 22, 15, 47, 44, 51, 46, 48|
1, 2, 3, 4, 5, 6, 7, 8, 9, 10, 15, 16, 17, 18, 19, 20, 22, 23, 26, 27, 28, 29, 33, 34, 35, 36, 37, 38, 39, 40, 41, 42, 43, 44, 45, 46, 47, 48, 49, 50, 51, 52, 53, 54, 55, 56, 57, 58, 59, 11, 13, 14, 21, 25, 30, 31, 32, 12, 24|
1, 2, 3, 4, 5, 6, 7, 8, 9, 17, 20, 33, 34, 35, 36, 37, 38, 44, 46, 48, 51, 53, 56, 11, 13, 14, 21, 25, 30, 31, 32, 10, 41, 45, 50, 22, 18, 19, 40, 52, 54, 55, 16, 27, 42, 28, 57, 26, 43, 12, 24, 23, 49, 15, 47, 58, 29, 39, 59|
1, 2, 3, 4, 5, 6, 7, 8, 9, 10, 15, 16, 17, 20, 22, 26, 27, 28, 29, 34, 35, 36, 37, 38, 39, 40, 41, 42, 43, 44, 45, 47, 50, 51, 52, 53, 54, 55, 56, 57, 58, 59, 11, 13, 14, 21, 25, 30, 31, 32, 33, 12, 24, 18, 19, 23, 49, 46, 48|
1, 2, 3, 4, 5, 6, 7, 8, 9, 10, 15, 16, 17, 18, 19, 20, 22, 23, 26, 27, 28, 29, 33, 34, 35, 36, 37, 38, 39, 40, 41, 42, 43, 44, 45, 46, 47, 48, 49, 50, 51, 52, 53, 54, 55, 56, 57, 58, 59, 11, 13, 14, 21, 25, 30, 31, 32, 12, 24|
1, 2, 3, 4, 5, 6, 7, 8, 9, 20, 27, 33, 34, 35, 36, 37, 38, 42, 44, 46, 48, 51, 53, 56, 58, 59, 11, 13, 14, 21, 25, 30, 31, 32, 18, 19, 40, 52, 54, 55, 29, 39, 22, 23, 49, 12, 24, 10, 41, 45, 50, 15, 47, 26, 43, 28, 57, 17, 16|
1, 2, 3, 4, 5, 6, 7, 8, 9, 16, 17, 20, 33, 34, 35, 36, 37, 38, 46, 48, 53, 56, 58, 59, 11, 13, 14, 21, 25, 30, 31, 32, 12, 24, 23, 49, 18, 19, 26, 43, 22, 29, 39, 15, 47, 40, 52, 54, 55, 27, 42, 44, 51, 10, 28, 41, 45, 50, 57|
1, 2, 3, 4, 5, 6, 7, 8, 9, 10, 16, 17, 20, 26, 34, 35, 36, 37, 38, 40, 41, 43, 44, 45, 50, 51, 52, 53, 54, 55, 56, 58, 59, 11, 13, 14, 21, 25, 30, 31, 32, 12, 24, 23, 49, 18, 19, 29, 39, 27, 42, 28, 57, 22, 33, 15, 47, 46, 48|
1, 2, 3, 4, 5, 6, 7, 8, 9, 17, 20, 23, 27, 28, 33, 34, 35, 36, 37, 38, 42, 44, 46, 48, 49, 51, 53, 56, 57, 58, 59, 18, 19, 11, 13, 14, 21, 25, 30, 31, 32, 12, 24, 40, 52, 54, 55, 15, 47, 10, 41, 45, 50, 22, 29, 39, 26, 43, 16|
1, 2, 3, 4, 5, 6, 7, 8, 9, 10, 15, 16, 17, 20, 22, 26, 28, 29, 34, 35, 36, 37, 38, 39, 40, 41, 43, 45, 47, 50, 52, 53, 54, 55, 56, 57, 58, 59, 11, 13, 14, 21, 25, 30, 31, 32, 23, 49, 33, 12, 24, 27, 42, 18, 19, 46, 48, 44, 51|
1, 2, 3, 4, 5, 6, 7, 8, 9, 10, 12, 15, 16, 17, 24, 29, 34, 35, 36, 37, 38, 39, 41, 45, 46, 47, 48, 50, 56, 58, 59, 11, 13, 14, 21, 25, 30, 31, 32, 23, 49, 18, 19, 44, 51, 33, 27, 42, 20, 53, 28, 57, 26, 43, 22, 40, 52, 54, 55|
1, 2, 3, 4, 5, 6, 7, 8, 9, 10, 15, 16, 17, 18, 19, 20, 22, 23, 26, 28, 33, 34, 35, 36, 37, 38, 40, 41, 43, 44, 45, 46, 47, 48, 49, 50, 51, 52, 53, 54, 55, 56, 57, 58, 59, 11, 13, 14, 21, 25, 30, 31, 32, 29, 39, 12, 24, 27, 42|
1, 2, 3, 4, 5, 6, 7, 8, 9, 15, 16, 17, 23, 27, 33, 34, 35, 36, 37, 38, 42, 46, 47, 48, 49, 56, 58, 11, 13, 14, 21, 25, 30, 31, 32, 18, 19, 26, 43, 12, 24, 22, 10, 41, 45, 50, 28, 57, 40, 52, 54, 55, 29, 39, 59, 20, 53, 44, 51|
1, 2, 3, 4, 5, 6, 7, 8, 9, 10, 15, 16, 17, 18, 19, 20, 22, 26, 27, 28, 29, 33, 34, 35, 36, 37, 38, 39, 40, 41, 42, 43, 44, 45, 46, 47, 48, 50, 51, 52, 53, 54, 55, 56, 57, 58, 59, 11, 13, 14, 21, 25, 30, 31, 32, 12, 24, 23, 49|
1, 2, 3, 4, 5, 6, 7, 8, 9, 10, 15, 16, 17, 18, 19, 20, 22, 23, 26, 28, 33, 34, 35, 36, 37, 38, 40, 41, 43, 44, 45, 46, 47, 48, 49, 50, 51, 52, 53, 54, 55, 56, 57, 58, 59, 11, 13, 14, 21, 25, 30, 31, 32, 29, 39, 12, 24, 27, 42|
1, 2, 3, 4, 5, 6, 7, 8, 9, 10, 12, 16, 17, 20, 22, 24, 28, 29, 34, 35, 36, 37, 38, 39, 40, 41, 45, 50, 52, 53, 54, 55, 56, 57, 58, 59, 11, 13, 14, 21, 25, 30, 31, 32, 23, 49, 27, 42, 18, 19, 33, 44, 51, 46, 48, 26, 43, 15, 47|
1, 2, 3, 4, 5, 6, 7, 8, 9, 10, 15, 16, 17, 20, 22, 23, 26, 28, 29, 33, 34, 35, 36, 37, 38, 39, 40, 41, 43, 44, 45, 46, 47, 48, 49, 50, 51, 52, 53, 54, 55, 56, 57, 58, 59, 11, 13, 14, 21, 25, 30, 31, 32, 12, 24, 18, 19, 27, 42|
1, 2, 3, 4, 5, 6, 7, 8, 9, 10, 15, 16, 17, 18, 19, 20, 22, 23, 26, 28, 29, 33, 34, 35, 36, 37, 38, 39, 40, 41, 43, 44, 45, 46, 47, 48, 49, 50, 51, 52, 53, 54, 55, 56, 57, 58, 59, 11, 13, 14, 21, 25, 30, 31, 32, 12, 24, 27, 42|
1, 2, 3, 4, 5, 6, 7, 8, 9, 10, 12, 16, 17, 24, 33, 34, 35, 36, 37, 38, 40, 41, 45, 46, 48, 50, 52, 54, 55, 56, 58, 11, 13, 14, 21, 25, 30, 31, 32, 20, 53, 23, 49, 27, 42, 28, 57, 22, 18, 19, 15, 47, 44, 51, 59, 26, 29, 39, 43|
1, 2, 3, 4, 5, 6, 7, 8, 9, 20, 23, 27, 33, 34, 35, 36, 37, 38, 42, 44, 46, 48, 49, 51, 53, 56, 58, 11, 13, 14, 21, 25, 30, 31, 32, 22, 18, 19, 10, 41, 45, 50, 26, 43, 29, 39, 15, 47, 17, 28, 57, 40, 52, 54, 55, 12, 24, 16, 59|
1, 2, 3, 4, 5, 6, 7, 8, 9, 10, 15, 16, 17, 18, 19, 20, 22, 23, 26, 27, 28, 29, 33, 34, 35, 36, 37, 38, 39, 40, 41, 42, 43, 44, 45, 46, 47, 48, 49, 50, 51, 52, 53, 54, 55, 56, 57, 58, 59, 11, 13, 14, 21, 25, 30, 31, 32, 12, 24|
1, 2, 3, 4, 5, 6, 7, 8, 9, 10, 12, 15, 16, 17, 18, 19, 20, 22, 24, 26, 28, 29, 34, 35, 36, 37, 38, 39, 40, 41, 43, 45, 47, 50, 52, 53, 54, 55, 56, 57, 58, 59, 11, 13, 14, 21, 25, 30, 31, 32, 23, 49, 33, 27, 42, 46, 48, 44, 51|];
attribute_names = [60, 61, 62, 63, 64, 65, 66, 67, 68, 69, 70, 71, 72, 73, 74, 75, 76, 77, 78, 79, 80, 81, 82, 83, 84, 85, 86, 87, 88, 89, 90, 91, 92, 93, 94, 95, 96, 97, 98, 99, 100, 101, 102, 103, 104, 105, 106, 107, 108, 109, 110, 111, 112, 113, 114, 115];
